WARNING: for repeatability, setting FPU to use double precision
============================[ Problem Statistics ]=============================
|                                                                             |
|  Number of variables:            50                                         |
|  Number of clauses:             218                                         |
|  Parse time:                   0.00 s                                       |
|                                                                             |
============================[ Search Statistics ]==============================
| Conflicts |          ORIGINAL         |          LEARNT          | Progress |
|           |    Vars  Clauses Literals |    Limit  Clauses Lit/Cl |          |
===============================================================================
===============================================================================
restarts              : 1
conflicts             : 16             (83333 /sec)
decisions             : 28             (0.00 % random) (145833 /sec)
propagations          : 271            (1411458 /sec)
conflict literals     : 64             (11.11 % deleted)
Memory used           : 20.00 MB
CPU time              : 0.000192 s

SATISFIABLE
